20
60
0 1 28 2
0 2 30 1
0 3 23 10
0 4 24 1
0 5 27 7
0 6 21 10
0 7 21 1
0 8 29 1
0 9 27 0
0 10 22 1
0 11 29 7
0 12 20 6
0 13 22 10
0 14 28 3
0 15 35 3
0 16 29 8
0 17 26 7
0 18 26 9
0 19 24 5
1 2 30 10
1 3 26 3
1 4 30 5
1 5 30 0
1 6 28 8
1 7 27 0
1 8 22 1
1 9 26 10
1 10 29 9
1 11 25 8
1 12 30 3
1 13 28 0
1 14 29 7
1 15 30 4
1 16 24 1
1 17 28 3
1 18 27 7
1 19 24 6
2 3 28 5
2 4 23 3
2 5 21 10
2 6 34 1
2 7 29 1
2 8 33 1
2 9 30 0
2 10 26 5
2 11 23 1
2 12 23 7
2 13 29 2
2 14 21 9
2 15 22 6
2 16 28 4
2 17 22 7
2 18 26 0
2 19 29 1
3 4 27 9
3 5 26 6
3 6 22 9
3 7 25 8
3 8 26 7
3 9 25 6
3 10 34 1
3 11 27 3
3 12 22 3
3 13 23 4
3 14 28 4
3 15 25 2
3 16 27 10
3 17 26 3
3 18 22 2
3 19 28 7
4 5 25 5
4 6 22 6
4 7 24 9
4 8 23 8
4 9 20 6
4 10 27 3
4 11 29 0
4 12 27 4
4 13 21 8
4 14 26 3
4 15 24 8
4 16 29 3
4 17 21 8
4 18 30 2
4 19 20 10
5 6 26 7
5 7 25 1
5 8 26 10
5 9 28 3
5 10 23 7
5 11 27 3
5 12 21 3
5 13 21 8
5 14 24 3
5 15 22 1
5 16 20 7
5 17 35 1
5 18 26 0
5 19 20 10
6 7 21 4
6 8 35 0
6 9 35 3
6 10 30 0
6 11 25 9
6 12 28 6
6 13 29 8
6 14 23 9
6 15 29 2
6 16 29 1
6 17 25 7
6 18 28 8
6 19 35 1
7 8 30 10
7 9 21 2
7 10 26 8
7 11 26 5
7 12 21 2
7 13 27 10
7 14 29 6
7 15 20 6
7 16 29 6
7 17 28 7
7 18 24 7
7 19 22 8
8 9 25 1
8 10 22 4
8 11 23 4
8 12 20 6
8 13 21 1
8 14 27 6
8 15 27 2
8 16 27 1
8 17 29 0
8 18 23 5
8 19 28 1
9 10 25 2
9 11 24 7
9 12 25 4
9 13 20 6
9 14 23 6
9 15 24 5
9 16 26 9
9 17 29 9
9 18 28 7
9 19 33 0
10 11 35 2
10 12 21 0
10 13 20 6
10 14 30 1
10 15 22 7
10 16 28 2
10 17 24 9
10 18 21 6
10 19 30 7
11 12 26 2
11 13 26 5
11 14 23 4
11 15 29 3
11 16 22 7
11 17 24 8
11 18 25 9
11 19 30 2
12 13 21 6
12 14 26 1
12 15 26 0
12 16 24 5
12 17 29 6
12 18 26 3
12 19 26 8
13 14 31 1
13 15 28 7
13 16 30 3
13 17 20 6
13 18 22 2
13 19 25 0
14 15 25 1
14 16 33 5
14 17 26 7
14 18 26 2
14 19 25 2
15 16 27 7
15 17 20 8
15 18 23 6
15 19 23 0
16 17 30 5
16 18 20 4
16 19 21 10
17 18 26 6
17 19 26 2
18 19 22 2